This is Ipopt version 3.10.0, running with linear solver ma27.

Number of nonzeros in equality constraint Jacobian...:        0
Number of nonzeros in inequality constraint Jacobian.:       48
Number of nonzeros in Lagrangian Hessian.............:        0

Total number of variables............................:        6
                     variables with only lower bounds:        3
                variables with lower and upper bounds:        3
                     variables with only upper bounds:        0
Total number of equality constraints.................:        0
Total number of inequality constraints...............:        8
        inequality constraints with only lower bounds:        0
   inequality constraints with lower and upper bounds:        0
        inequality constraints with only upper bounds:        8

iter    objective    inf_pr   inf_du lg(mu)  ||d||  lg(rg) alpha_du alpha_pr  ls
   0  3.8435797e+00 3.35e+00 1.30e+00   0.0 0.00e+00    -  0.00e+00 0.00e+00   0
   1  5.2522091e+00 1.34e+00 5.36e+00  -0.4 1.83e+00    -  6.28e-01 9.97e-01f  1
   2  6.3318199e+00 4.22e-01 2.68e+00  -0.4 1.04e+00    -  6.34e-01 8.96e-01h  1
   3  6.4878692e+00 3.82e-01 1.19e+00  -1.3 5.92e-01    -  9.41e-01 4.52e-01h  1
   4  7.3581847e+00 1.15e-01 2.96e+00  -1.2 9.54e-01    -  9.42e-01 6.84e-01h  1
   5  7.3968780e+00 1.30e-01 7.28e+00  -1.5 1.32e+00    -  9.98e-01 4.82e-01h  2
   6  7.9063628e+00 3.83e-02 5.68e-01  -1.2 2.53e-01    -  1.00e+00 1.00e+00h  1
   7  7.9709211e+00 6.47e-03 7.34e-01  -2.3 1.64e-01    -  9.97e-01 8.80e-01h  1
   8  7.9746987e+00 3.73e-03 5.23e-01  -3.6 1.59e-01    -  1.00e+00 1.00e+00h  1
   9  7.9805035e+00 8.91e-04 4.14e-02  -4.7 3.31e-02    -  1.00e+00 1.00e+00h  1
iter    objective    inf_pr   inf_du lg(mu)  ||d||  lg(rg) alpha_du alpha_pr  ls
  10  7.9793500e+00 7.70e-05 7.90e-02  -6.0 8.46e-02    -  1.00e+00 1.00e+00H  1
  11  7.9778752e+00 1.57e-04 6.74e-02  -4.0 2.39e-02    -  1.00e+00 1.00e+00h  1
  12  7.9759820e+00 8.91e-04 1.73e-01  -5.1 8.35e-02    -  1.00e+00 1.00e+00h  1
  13  7.9776260e+00 1.01e-03 2.81e-02  -6.1 6.81e-02    -  1.00e+00 1.00e+00H  1
  14  7.9828194e+00 0.00e+00 4.65e-02  -7.8 1.26e-02    -  1.00e+00 1.00e+00h  1
  15  7.9805366e+00 7.96e-04 3.78e-01  -7.8 7.45e-02    -  1.00e+00 8.87e-01h  1
  16  7.9799949e+00 5.30e-04 2.49e-01  -7.8 1.68e-02    -  8.76e-05 1.00e+00f  1
  17  7.9769410e+00 6.06e-04 1.12e-01  -7.8 1.77e-02    -  1.00e+00 1.00e+00h  1
  18  7.9788482e+00 1.40e-04 8.14e-02  -9.4 6.94e-03    -  1.00e+00 9.99e-01H  1

Number of Iterations....: 18

                                   (scaled)                 (unscaled)
Objective...............:   7.9788482248321291e+00    7.9788482248321291e+00
Dual infeasibility......:   8.1411146558541869e-02    8.1411146558541869e-02
Constraint violation....:   1.4032269851043695e-04    1.4032269851043695e-04
Complementarity.........:   9.4087053772007869e-09    9.4087053772007869e-09
Overall NLP error.......:   8.1411146558541869e-02    8.1411146558541869e-02


Number of objective function evaluations             = 26
Number of objective gradient evaluations             = 19
Number of equality constraint evaluations            = 0
Number of inequality constraint evaluations          = 26
Number of equality constraint Jacobian evaluations   = 0
Number of inequality constraint Jacobian evaluations = 19
Number of Lagrangian Hessian evaluations             = 0
Total CPU secs in IPOPT (w/o function evaluations)   =      0.024
Total CPU secs in NLP function evaluations           =    402.246

EXIT: Stopping optimization at current point as requested by user.
